TIP.Original.Linear/tip2015_weird_nat_mul2_assoc.smt2
(set-logic HORN)
(declare-datatypes ((Nat_155 0)) (((zero_2 ) (succ_2 (p_4 Nat_155)))))
(declare-fun diseqNat_155 (Nat_155 Nat_155) Bool)
(declare-fun p_5 (Nat_155 Nat_155) Bool)
(declare-fun iszero_2 (Nat_155) Bool)
(declare-fun issucc_2 (Nat_155) Bool)
(assert (forall ((x_4262 Nat_155))
	(p_5 x_4262 (succ_2 x_4262))))
(assert (iszero_2 zero_2))
(assert (forall ((x_4264 Nat_155))
	(issucc_2 (succ_2 x_4264))))
(assert (forall ((x_4265 Nat_155))
	(diseqNat_155 zero_2 (succ_2 x_4265))))
(assert (forall ((x_4266 Nat_155))
	(diseqNat_155 (succ_2 x_4266) zero_2)))
(assert (forall ((x_4267 Nat_155) (x_4268 Nat_155))
	(=> (diseqNat_155 x_4267 x_4268)
	    (diseqNat_155 (succ_2 x_4267) (succ_2 x_4268)))))
(declare-fun plus_1 (Nat_155 Nat_155 Nat_155) Bool)
(assert (forall ((x_4235 Nat_155) (z_434 Nat_155) (y_347 Nat_155))
	(=> (plus_1 x_4235 z_434 y_347)
	    (plus_1 (succ_2 x_4235) (succ_2 z_434) y_347))))
(assert (forall ((x_4236 Nat_155))
	(plus_1 x_4236 zero_2 x_4236)))
(declare-fun addacc_0 (Nat_155 Nat_155 Nat_155 Nat_155) Bool)
(assert (forall ((x_4237 Nat_155) (x_4225 Nat_155) (y_348 Nat_155) (z_435 Nat_155))
	(=> (addacc_0 x_4237 x_4225 (succ_2 y_348) z_435)
	    (addacc_0 x_4237 (succ_2 x_4225) y_348 z_435))))
(assert (forall ((x_4239 Nat_155) (x_4226 Nat_155) (z_435 Nat_155))
	(=> (addacc_0 x_4239 zero_2 x_4226 (succ_2 z_435))
	    (addacc_0 x_4239 zero_2 (succ_2 x_4226) z_435))))
(assert (forall ((x_4241 Nat_155))
	(addacc_0 x_4241 zero_2 zero_2 x_4241)))
(declare-fun mul_0 (Nat_155 Nat_155 Nat_155) Bool)
(assert (forall ((x_4242 Nat_155) (x_4243 Nat_155) (x_4244 Nat_155) (x_4228 Nat_155) (z_436 Nat_155))
	(=>	(and (mul_0 x_4243 z_436 x_4228)
			(addacc_0 x_4244 z_436 x_4228 x_4243)
			(plus_1 x_4242 (succ_2 zero_2) x_4244))
		(mul_0 x_4242 (succ_2 z_436) (succ_2 x_4228)))))
(assert (forall ((z_436 Nat_155))
	(mul_0 zero_2 (succ_2 z_436) zero_2)))
(assert (forall ((y_349 Nat_155))
	(mul_0 zero_2 zero_2 y_349)))
(assert (forall ((x_4248 Nat_155) (x_4249 Nat_155) (x_4250 Nat_155) (x_4251 Nat_155) (x_4229 Nat_155) (y_350 Nat_155) (z_437 Nat_155))
	(=>	(and true
			(diseqNat_155 x_4249 x_4251)
			(mul_0 x_4248 y_350 z_437)
			(mul_0 x_4249 x_4229 x_4248)
			(mul_0 x_4250 x_4229 y_350)
			(mul_0 x_4251 x_4250 z_437))
		false)))
(assert (forall ((x_4252 Nat_155) (x_4253 Nat_155) (x_4254 Nat_155) (x_4255 Nat_155) (x_4230 Nat_155) (y_351 Nat_155) (z_438 Nat_155))
	(=>	(and true
			(diseqNat_155 x_4253 x_4255)
			(plus_1 x_4252 y_351 z_438)
			(plus_1 x_4253 x_4230 x_4252)
			(plus_1 x_4254 x_4230 y_351)
			(plus_1 x_4255 x_4254 z_438))
		false)))
(assert (forall ((x_4256 Nat_155) (x_4257 Nat_155) (x_4231 Nat_155) (y_352 Nat_155))
	(=>	(and true
			(diseqNat_155 x_4256 x_4257)
			(plus_1 x_4256 x_4231 y_352)
			(plus_1 x_4257 y_352 x_4231))
		false)))
(assert (forall ((x_4258 Nat_155) (x_4232 Nat_155))
	(=>	(and true
			(diseqNat_155 x_4258 x_4232)
			(plus_1 x_4258 x_4232 zero_2))
		false)))
(assert (forall ((x_4259 Nat_155) (x_4233 Nat_155))
	(=>	(and true
			(diseqNat_155 x_4259 x_4233)
			(plus_1 x_4259 zero_2 x_4233))
		false)))
(check-sat)
